letting initialStacks = [14, 10, 3, 41, 6, 50, 24, 42, 44, 17, 40, 49, 36, 1, 46, 5, 45, 22, 9, 25, 7, 23, 39, 38, 13, 21, 20, 4, 30, 15, 26, 2, 37, 47, 29, 33, 12, 18, 43, 48, 16, 51, 19, 32, 11, 28, 31, 8, 35, 27, 34]
